certificates/rado_a14_c220_N38.drat
16 -37 14 0
32 -10 -16 14 0
-16 -38 0
-38 0
14 0
-16 37 0
37 0
-13 0
16 0
-12 0
-20 0
-10 0
-18 0
-33 0
17 0
15 0
6 0
1 0
-35 0
-19 0
-32 0
-34 0
-21 0
-11 0
-5 0
0
